cleaned_string_benchmarks/operator-statistics/sv-comp/17768_jbmc-regression_StringMiscellaneous03_Main_15.out
&&	4
<=	5
str.len	9
assert	5
variable	2
casting	5
<	2
-	3
>=	1
